nNurses = 129;
nHours = 26;
minHours = 6;
maxHours = 16;
maxConsec = 11;
maxPresence = 26;
demand = [14, 15, 11, 6, 6, 10, 7, 12, 8, 11, 11, 12, 8, 13, 16, 20, 15, 12, 8, 13, 16, 19, 21, 19, 20, 15];
